c File: data_files/evolved_graphs/g0345.col
c
c Auto generated graph
c
p edge 100 1389
e 1 4
e 1 5
e 1 10
e 1 11
e 1 25
e 1 27
e 1 28
e 1 30
e 1 31
e 1 32
e 1 33
e 1 34
e 1 35
e 1 36
e 1 37
e 1 38
e 1 39
e 1 40
e 1 41
e 1 42
e 1 43
e 1 44
e 1 49
e 1 53
e 1 80
e 1 81
e 1 82
e 1 83
e 1 84
e 1 86
e 1 89
e 1 90
e 1 92
e 1 93
e 1 94
e 1 95
e 1 96
e 1 98
e 1 99
e 1 100
e 2 4
e 2 5
e 2 11
e 2 25
e 2 26
e 2 27
e 2 28
e 2 29
e 2 30
e 2 31
e 2 32
e 2 33
e 2 34
e 2 35
e 2 36
e 2 38
e 2 39
e 2 40
e 2 41
e 2 42
e 2 43
e 2 44
e 2 46
e 2 60
e 2 70
e 2 76
e 2 80
e 2 81
e 2 82
e 2 83
e 2 84
e 2 85
e 2 86
e 2 87
e 2 88
e 2 89
e 2 90
e 2 92
e 2 93
e 2 94
e 2 95
e 2 96
e 2 97
e 2 99
e 2 100
e 3 4
e 3 25
e 3 26
e 3 27
e 3 28
e 3 29
e 3 30
e 3 31
e 3 32
e 3 33
e 3 34
e 3 36
e 3 37
e 3 38
e 3 39
e 3 40
e 3 41
e 3 42
e 3 43
e 3 44
e 3 50
e 3 60
e 3 61
e 3 64
e 3 68
e 3 77
e 3 79
e 3 80
e 3 83
e 3 84
e 3 85
e 3 86
e 3 87
e 3 88
e 3 89
e 3 90
e 3 91
e 3 92
e 3 94
e 3 95
e 3 98
e 3 99
e 4 25
e 4 26
e 4 27
e 4 28
e 4 29
e 4 30
e 4 31
e 4 32
e 4 33
e 4 34
e 4 36
e 4 37
e 4 38
e 4 39
e 4 40
e 4 41
e 4 42
e 4 43
e 4 44
e 4 47
e 4 55
e 4 71
e 4 86
e 4 87
e 4 88
e 4 89
e 4 90
e 4 91
e 4 92
e 4 93
e 4 96
e 4 97
e 4 98
e 4 99
e 4 100
e 5 11
e 5 25
e 5 26
e 5 27
e 5 28
e 5 29
e 5 30
e 5 31
e 5 32
e 5 33
e 5 34
e 5 35
e 5 36
e 5 37
e 5 38
e 5 39
e 5 40
e 5 41
e 5 42
e 5 43
e 5 44
e 5 46
e 5 55
e 5 58
e 5 59
e 5 61
e 5 63
e 5 69
e 5 73
e 5 76
e 5 86
e 5 87
e 5 88
e 5 89
e 5 90
e 5 91
e 5 92
e 5 94
e 5 95
e 5 96
e 5 98
e 5 100
e 6 24
e 6 25
e 6 26
e 6 27
e 6 28
e 6 29
e 6 30
e 6 31
e 6 32
e 6 33
e 6 34
e 6 35
e 6 36
e 6 37
e 6 38
e 6 39
e 6 40
e 6 41
e 6 42
e 6 43
e 6 44
e 6 46
e 6 47
e 6 48
e 6 50
e 6 59
e 6 67
e 6 68
e 6 72
e 6 86
e 6 87
e 6 88
e 6 89
e 6 91
e 6 92
e 6 93
e 6 94
e 6 95
e 6 96
e 6 98
e 6 99
e 6 100
e 7 25
e 7 26
e 7 27
e 7 28
e 7 29
e 7 30
e 7 31
e 7 32
e 7 33
e 7 34
e 7 35
e 7 36
e 7 37
e 7 38
e 7 39
e 7 40
e 7 41
e 7 42
e 7 43
e 7 44
e 7 55
e 7 58
e 7 61
e 7 63
e 7 66
e 7 70
e 7 74
e 7 86
e 7 88
e 7 89
e 7 90
e 7 92
e 7 93
e 7 94
e 7 95
e 7 96
e 7 97
e 7 98
e 7 99
e 8 24
e 8 25
e 8 26
e 8 27
e 8 28
e 8 29
e 8 30
e 8 31
e 8 32
e 8 33
e 8 34
e 8 35
e 8 36
e 8 37
e 8 38
e 8 39
e 8 40
e 8 41
e 8 42
e 8 43
e 8 44
e 8 46
e 8 49
e 8 56
e 8 57
e 8 65
e 8 66
e 8 71
e 8 87
e 8 88
e 8 89
e 8 90
e 8 92
e 8 93
e 8 94
e 8 95
e 8 96
e 8 97
e 8 98
e 8 99
e 8 100
e 9 17
e 9 24
e 9 26
e 9 27
e 9 28
e 9 29
e 9 30
e 9 31
e 9 32
e 9 33
e 9 34
e 9 35
e 9 36
e 9 37
e 9 38
e 9 39
e 9 40
e 9 41
e 9 42
e 9 43
e 9 44
e 9 50
e 9 55
e 9 58
e 9 59
e 9 63
e 9 69
e 9 75
e 9 76
e 9 86
e 9 87
e 9 89
e 9 90
e 9 91
e 9 93
e 9 94
e 9 95
e 9 96
e 9 98
e 9 99
e 9 100
e 10 25
e 10 26
e 10 27
e 10 28
e 10 29
e 10 30
e 10 31
e 10 32
e 10 33
e 10 34
e 10 35
e 10 36
e 10 37
e 10 38
e 10 39
e 10 40
e 10 41
e 10 42
e 10 43
e 10 44
e 10 52
e 10 55
e 10 59
e 10 61
e 10 73
e 10 87
e 10 88
e 10 90
e 10 92
e 10 93
e 10 94
e 10 95
e 10 96
e 10 97
e 10 98
e 10 99
e 10 100
e 11 18
e 11 25
e 11 26
e 11 27
e 11 28
e 11 29
e 11 30
e 11 31
e 11 32
e 11 33
e 11 34
e 11 35
e 11 36
e 11 37
e 11 38
e 11 39
e 11 40
e 11 41
e 11 42
e 11 43
e 11 44
e 11 47
e 11 50
e 11 61
e 11 67
e 11 71
e 11 76
e 11 86
e 11 87
e 11 88
e 11 89
e 11 90
e 11 91
e 11 93
e 11 94
e 11 95
e 11 96
e 11 97
e 11 98
e 11 99
e 11 100
e 12 25
e 12 26
e 12 27
e 12 28
e 12 29
e 12 30
e 12 31
e 12 32
e 12 33
e 12 34
e 12 35
e 12 36
e 12 37
e 12 38
e 12 39
e 12 40
e 12 41
e 12 42
e 12 43
e 12 44
e 12 49
e 12 52
e 12 63
e 12 65
e 12 73
e 12 74
e 12 86
e 12 87
e 12 88
e 12 89
e 12 90
e 12 91
e 12 94
e 12 95
e 12 96
e 12 97
e 12 98
e 12 99
e 12 100
e 13 25
e 13 27
e 13 28
e 13 29
e 13 30
e 13 31
e 13 32
e 13 33
e 13 34
e 13 35
e 13 36
e 13 37
e 13 38
e 13 39
e 13 40
e 13 41
e 13 42
e 13 43
e 13 44
e 13 46
e 13 86
e 13 87
e 13 88
e 13 89
e 13 90
e 13 92
e 13 94
e 13 95
e 13 96
e 13 97
e 13 98
e 14 25
e 14 27
e 14 28
e 14 29
e 14 30
e 14 31
e 14 32
e 14 33
e 14 34
e 14 35
e 14 36
e 14 37
e 14 38
e 14 39
e 14 40
e 14 41
e 14 42
e 14 43
e 14 44
e 14 50
e 14 52
e 14 55
e 14 62
e 14 65
e 14 70
e 14 87
e 14 88
e 14 89
e 14 90
e 14 92
e 14 93
e 14 94
e 14 95
e 14 96
e 14 97
e 14 98
e 14 99
e 14 100
e 15 25
e 15 27
e 15 28
e 15 29
e 15 30
e 15 31
e 15 32
e 15 33
e 15 34
e 15 35
e 15 36
e 15 37
e 15 38
e 15 39
e 15 40
e 15 41
e 15 42
e 15 43
e 15 44
e 15 58
e 15 62
e 15 74
e 15 75
e 15 87
e 15 88
e 15 89
e 15 90
e 15 91
e 15 92
e 15 93
e 15 94
e 15 96
e 15 97
e 15 99
e 15 100
e 16 25
e 16 27
e 16 28
e 16 29
e 16 30
e 16 31
e 16 32
e 16 33
e 16 34
e 16 35
e 16 36
e 16 37
e 16 38
e 16 39
e 16 40
e 16 41
e 16 42
e 16 43
e 16 44
e 16 57
e 16 62
e 16 65
e 16 75
e 16 76
e 16 86
e 16 87
e 16 89
e 16 90
e 16 92
e 16 93
e 16 94
e 16 95
e 16 96
e 16 97
e 16 99
e 16 100
e 17 25
e 17 27
e 17 28
e 17 29
e 17 30
e 17 31
e 17 32
e 17 33
e 17 34
e 17 35
e 17 36
e 17 37
e 17 38
e 17 39
e 17 40
e 17 41
e 17 42
e 17 43
e 17 44
e 17 60
e 17 63
e 17 70
e 17 71
e 17 73
e 17 86
e 17 87
e 17 88
e 17 89
e 17 90
e 17 91
e 17 93
e 17 94
e 17 96
e 17 97
e 17 98
e 17 99
e 17 100
e 18 25
e 18 26
e 18 27
e 18 28
e 18 29
e 18 30
e 18 31
e 18 32
e 18 33
e 18 34
e 18 35
e 18 36
e 18 37
e 18 38
e 18 39
e 18 40
e 18 41
e 18 42
e 18 43
e 18 44
e 18 52
e 18 55
e 18 66
e 18 74
e 18 75
e 18 76
e 18 86
e 18 87
e 18 88
e 18 89
e 18 90
e 18 91
e 18 92
e 18 93
e 18 95
e 18 96
e 18 98
e 18 100
e 19 25
e 19 26
e 19 27
e 19 28
e 19 29
e 19 30
e 19 31
e 19 32
e 19 33
e 19 34
e 19 35
e 19 36
e 19 37
e 19 38
e 19 39
e 19 40
e 19 41
e 19 42
e 19 43
e 19 44
e 19 48
e 19 54
e 19 58
e 19 61
e 19 70
e 19 75
e 19 86
e 19 87
e 19 88
e 19 89
e 19 90
e 19 91
e 19 92
e 19 93
e 19 94
e 19 95
e 19 96
e 19 98
e 19 99
e 19 100
e 20 25
e 20 26
e 20 27
e 20 28
e 20 29
e 20 30
e 20 31
e 20 32
e 20 33
e 20 34
e 20 35
e 20 36
e 20 37
e 20 38
e 20 39
e 20 40
e 20 41
e 20 42
e 20 43
e 20 44
e 20 47
e 20 50
e 20 58
e 20 60
e 20 68
e 20 82
e 20 86
e 20 87
e 20 88
e 20 89
e 20 90
e 20 91
e 20 92
e 20 94
e 20 96
e 20 97
e 20 98
e 20 99
e 21 25
e 21 26
e 21 27
e 21 28
e 21 29
e 21 30
e 21 31
e 21 32
e 21 33
e 21 34
e 21 35
e 21 36
e 21 37
e 21 38
e 21 39
e 21 40
e 21 41
e 21 42
e 21 43
e 21 44
e 21 48
e 21 57
e 21 58
e 21 67
e 21 86
e 21 88
e 21 89
e 21 91
e 21 92
e 21 93
e 21 95
e 21 96
e 21 97
e 21 98
e 21 99
e 22 25
e 22 26
e 22 27
e 22 28
e 22 29
e 22 30
e 22 31
e 22 32
e 22 33
e 22 34
e 22 35
e 22 36
e 22 37
e 22 38
e 22 39
e 22 40
e 22 41
e 22 42
e 22 43
e 22 44
e 22 50
e 22 58
e 22 71
e 22 86
e 22 87
e 22 88
e 22 90
e 22 91
e 22 93
e 22 94
e 22 95
e 22 97
e 22 98
e 22 99
e 22 100
e 23 25
e 23 26
e 23 27
e 23 28
e 23 29
e 23 30
e 23 31
e 23 32
e 23 33
e 23 34
e 23 35
e 23 36
e 23 37
e 23 38
e 23 39
e 23 40
e 23 41
e 23 42
e 23 43
e 23 44
e 23 46
e 23 57
e 23 58
e 23 59
e 23 61
e 23 62
e 23 63
e 23 75
e 23 86
e 23 87
e 23 88
e 23 89
e 23 90
e 23 92
e 23 93
e 23 95
e 23 96
e 23 97
e 23 98
e 23 99
e 23 100
e 24 25
e 24 26
e 24 27
e 24 28
e 24 29
e 24 30
e 24 31
e 24 32
e 24 33
e 24 34
e 24 35
e 24 36
e 24 37
e 24 38
e 24 39
e 24 40
e 24 41
e 24 42
e 24 43
e 24 44
e 24 47
e 24 48
e 24 49
e 24 57
e 24 58
e 24 59
e 24 62
e 24 71
e 24 75
e 24 86
e 24 87
e 24 88
e 24 89
e 24 90
e 24 91
e 24 92
e 24 93
e 24 94
e 24 96
e 24 97
e 24 98
e 24 99
e 24 100
e 25 52
e 25 60
e 25 76
e 25 86
e 25 87
e 25 89
e 25 91
e 25 93
e 25 94
e 25 96
e 25 97
e 25 98
e 25 99
e 25 100
e 26 50
e 26 62
e 26 63
e 26 70
e 26 71
e 26 72
e 26 86
e 26 88
e 26 89
e 26 90
e 26 91
e 26 92
e 26 96
e 26 97
e 26 98
e 26 99
e 26 100
e 27 49
e 27 75
e 27 86
e 27 87
e 27 88
e 27 89
e 27 90
e 27 91
e 27 94
e 27 95
e 27 96
e 27 97
e 27 98
e 27 99
e 27 100
e 28 49
e 28 51
e 28 70
e 28 72
e 28 73
e 28 76
e 28 86
e 28 87
e 28 91
e 28 92
e 28 93
e 28 94
e 28 95
e 28 96
e 28 97
e 28 98
e 28 100
e 29 48
e 29 54
e 29 57
e 29 58
e 29 61
e 29 65
e 29 71
e 29 86
e 29 87
e 29 89
e 29 90
e 29 91
e 29 93
e 29 94
e 29 95
e 29 96
e 29 97
e 29 98
e 29 99
e 29 100
e 30 36
e 30 48
e 30 53
e 30 64
e 30 65
e 30 73
e 30 74
e 30 76
e 30 86
e 30 87
e 30 89
e 30 90
e 30 91
e 30 92
e 30 93
e 30 94
e 30 95
e 30 96
e 30 97
e 30 98
e 30 99
e 30 100
e 31 49
e 31 53
e 31 66
e 31 71
e 31 74
e 31 86
e 31 87
e 31 88
e 31 89
e 31 91
e 31 92
e 31 93
e 31 94
e 31 95
e 31 97
e 31 99
e 31 100
e 32 46
e 32 53
e 32 56
e 32 57
e 32 72
e 32 86
e 32 87
e 32 88
e 32 89
e 32 90
e 32 91
e 32 92
e 32 93
e 32 94
e 32 97
e 32 98
e 32 99
e 32 100
e 33 47
e 33 57
e 33 61
e 33 64
e 33 75
e 33 86
e 33 88
e 33 89
e 33 91
e 33 92
e 33 93
e 33 95
e 33 96
e 33 97
e 33 98
e 33 99
e 33 100
e 34 45
e 34 87
e 34 88
e 34 90
e 34 91
e 34 92
e 34 93
e 34 94
e 34 95
e 34 96
e 34 97
e 34 98
e 34 99
e 34 100
e 35 86
e 35 87
e 35 88
e 35 89
e 35 91
e 35 92
e 35 93
e 35 94
e 35 96
e 35 98
e 35 99
e 35 100
e 36 86
e 36 87
e 36 88
e 36 89
e 36 90
e 36 91
e 36 92
e 36 93
e 36 94
e 36 95
e 36 96
e 36 97
e 36 98
e 36 99
e 36 100
e 37 86
e 37 87
e 37 88
e 37 89
e 37 90
e 37 91
e 37 92
e 37 93
e 37 94
e 37 95
e 37 96
e 37 100
e 38 86
e 38 87
e 38 88
e 38 89
e 38 90
e 38 91
e 38 92
e 38 93
e 38 94
e 38 95
e 38 96
e 38 99
e 38 100
e 39 87
e 39 90
e 39 91
e 39 92
e 39 93
e 39 94
e 39 95
e 39 96
e 39 97
e 39 98
e 39 99
e 39 100
e 40 86
e 40 87
e 40 88
e 40 89
e 40 90
e 40 91
e 40 92
e 40 93
e 40 94
e 40 96
e 40 97
e 40 99
e 40 100
e 41 72
e 43 72
e 48 72
e 52 71
e 52 72
e 53 72
e 54 71
e 54 72
e 55 87
e 58 71
e 63 77
e 63 83
e 63 86
e 64 71
e 65 72
e 67 94
e 67 95
e 67 96
e 67 97
e 67 98
e 67 99
e 67 100
e 68 94
e 68 95
e 68 96
e 68 98
e 68 99
e 68 100
e 69 71
e 69 94
e 69 95
e 69 96
e 69 97
e 69 98
e 69 99
e 69 100
e 70 72
e 70 94
e 70 95
e 70 96
e 70 97
e 70 98
e 70 99
e 70 100
e 71 94
e 71 95
e 71 96
e 71 97
e 71 98
e 71 99
e 71 100
e 72 94
e 72 95
e 72 96
e 72 97
e 72 98
e 72 99
e 72 100
e 73 94
e 73 95
e 73 96
e 73 97
e 73 98
e 73 99
e 73 100
e 74 91
e 74 94
e 74 95
e 74 96
e 74 97
e 74 98
e 74 99
e 74 100
e 75 89
e 75 94
e 75 95
e 75 96
e 75 97
e 75 98
e 75 99
e 75 100
e 76 94
e 76 95
e 76 96
e 76 97
e 76 98
e 76 99
e 76 100
e 77 78
e 77 94
e 77 95
e 77 96
e 77 97
e 77 98
e 77 99
e 77 100
e 78 94
e 78 95
e 78 96
e 78 97
e 78 98
e 78 99
e 78 100
e 79 89
e 79 94
e 79 95
e 79 96
e 79 97
e 79 98
e 79 99
e 79 100
e 80 90
e 80 91
e 80 92
e 80 93
e 80 94
e 80 95
e 80 96
e 80 97
e 80 98
e 80 100
e 81 90
e 81 91
e 81 92
e 81 93
e 81 94
e 81 95
e 81 96
e 81 97
e 81 98
e 81 99
e 81 100
e 82 90
e 82 91
e 82 92
e 82 93
e 82 94
e 82 95
e 82 96
e 82 97
e 82 98
e 82 99
e 82 100
e 83 90
e 83 91
e 83 92
e 83 93
e 83 94
e 83 95
e 83 96
e 83 97
e 83 98
e 83 99
e 83 100
e 84 90
e 84 91
e 84 92
e 84 93
e 84 94
e 84 95
e 84 96
e 84 98
e 84 99
e 84 100
e 85 89
e 85 91
e 85 92
e 85 93
e 85 94
e 85 95
e 85 96
e 85 97
e 85 98
e 85 99
e 85 100
e 86 90
e 86 91
e 86 92
e 86 93
e 86 94
e 86 95
e 86 96
e 86 97
e 86 98
e 86 100
e 87 89
e 87 90
e 87 91
e 87 92
e 87 93
e 87 94
e 87 95
e 87 96
e 87 97
e 87 98
e 87 99
e 87 100
e 88 90
e 88 91
e 88 92
e 88 93
e 88 94
e 88 95
e 88 96
e 88 97
e 88 98
e 88 99
e 88 100
e 90 96
e 91 96
